CMD:
./solvers/bin/cadical --plain --no-reduce -t 1600 ./data/cnfs//oski15a08b09s/oski15a08b09s.11.cnf

c --- [ banner ] -------------------------------------------------------------
c 
c CaDiCaL SAT Solver
c Copyright (c) 2016-2024
c A. Biere, M. Fleury, N. Froleyks, K. Fazekas, F. Pollitt, T. Faller
c JKU Linz, University of Freiburg, TU Wien
c 
c Version 2.1.3 5296d3d2a9bf48c154ab2acb5e44625776d821bf
c g++ (Gentoo 12.3.1_p20230526 p2) 12.3.1 20230526 -Wall -Wextra -O3 -DNDEBUG
c Sat Aug 9 07:26:21 PDT 2025 Linux cedar2.int.cedar.computecanada.ca 5.14.0-362.24.2.el9_3.x86_64 x86_64
c 
c --- [ limit ] --------------------------------------------------------------
c 
c setting time limit to 1600 seconds real time (due to '-t 1600')
c 
c --- [ parsing input ] ------------------------------------------------------
c 
c reading DIMACS file from './data/cnfs//oski15a08b09s/oski15a08b09s.11.cnf'
c opening file to read './data/cnfs//oski15a08b09s/oski15a08b09s.11.cnf'
c found 'p cnf 9912052 29140249' header
c parsed 29140249 clauses in 4.82 seconds process time
c 
c --- [ options ] ------------------------------------------------------------
c 
c   --compact=false                (different from default 'true')
c   --decompose=false              (different from default 'true')
c   --deduplicate=false            (different from default 'true')
c   --elim=false                   (different from default 'true')
c   --probe=false                  (different from default 'true')
c   --reduce=false                 (different from default 'true')
c   --subsume=false                (different from default 'true')
c   --ternary=false                (different from default 'true')
c   --transred=false               (different from default 'true')
c   --vivify=false                 (different from default 'true')
c 
c --- [ solving ] ------------------------------------------------------------
c 
c time measured in process time since initialization
c 
c  seconds    reductions  redundant   irredundant
c          MB     restarts       trail          variables
c            level   conflicts       glue             remaining
c 
c *  4.82 4175  0 0   0    0    0  0% 0 25431572 6811713 69%
c {  5.80 4203  0 0   0    0    0  0% 0 25431572 6811713 69%
c } 10.82 4208 5940 0 119 1002  731 40% 9 25431572 6811713 69%
c [ 10.82 4208  0 0 119 1002  731  0% 0 25431572 6811713 69%
c O 11.52 4208 15567 0 119 1003  732 57% 2 25431572 6811713 69%
c ] 14.35 4219 16347 0 119 1349 1078 85% 2 25431572 6811713 69%
c 1 14.35 4219 16347 0 119 1349 1078 85% 2 25431572 6811713 69%
c 
c --- [ result ] -------------------------------------------------------------
c 
s SATISFIABLE
v 1 2 3 4 5 6 7 -8 9 10 11 12 13 14 15 -16 17 -18 19 20 21 22 23 24 25 26 27
v 28 29 30 31 32 33 34 35 36 37 38 39 40 41 42 43 44 45 46 47 48 49 50 51 52
v 53 54 55 56 57 58 59 60 61 62 63 64 -65 -66 67 68 69 70 71 72 73 74 75 76 77
v 78 79 80 81 82 83 84 85 86 87 88 89 90 91 92 93 94 95 96 97 98 99 100 101
v 102 103 104 105 106 107 108 109 110 111 112 113 114 115 116 117 118 119 120
v 121 -122 123 124 125 126 127 128 129 130 131 -132 133 -134 -135 -136 -137
v -138 -139 -140 -141 -142 -143 -144 -145 -146 -147 -148 -149 -150 -151 -152
v -153 -154 -155 -156 -157 -158 -159 -160 -161 -162 -163 -164 -165 -166 -167
v -168 -169 -170 -171 -172 -173 174 175 176 177 178 179 180 181 182 183 184
v 185 186 187 188 189 190 191 192 193 194 195 196 197 198 -199 200 -201 -202
v -203 -204 -205 -206 -207 -208 -209 -210 -211 -212 -213 -214 -215 -216 -217
v -218 -219 -220 -221 -222 -223 -224 -225 -226 -227 -228 -229 -230 -231 -232
v -233 -234 -235 -236 -237 -238 -239 -240 241 242 243 244 245 246 247 248 249
v 250 251 252 253 254 255 256 257 258 259 260 261 262 263 264 265 -266 267 268
v 269 270 271 272 273 274 275 -276 277 278 279 280 281 282 283 284 285 -286
v 287 288 289 290 291 292 293 294 295 -296 297 298 299 300 301 302 303 304 305
v -306 307 308 309 310 311 312 313 314 315 -316 317 318 319 320 321 322 323
v 324 325 -326 327 328 329 330 331 332 333 334 335 -336 337 338 339 340 341
v 342 343 344 345 -346 347 348 349 350 351 352 353 354 355 -356 357 358 359
v 360 361 362 363 364 365 -366 367 368 369 370 371 372 373 374 375 -376 377
v 378 379 380 381 382 383 384 385 -386 387 388 389 390 391 392 393 394 395
v -396 397 398 399 400 401 402 403 404 -405 -406 407 408 409 410 411 412 413
v 414 -415 -416 417 418 419 420 421 422 423 424 -425 -426 427 428 429 430 431
v 432 433 434 -435 -436 437 438 439 440 441 442 443 444 -445 -446 447 448 449
v 450 -451 452 453 454 455 -456 457 458 459 460 -461 462 463 464 465 -466 467
v 468 469 470 -471 472 473 474 475 -476 477 478 479 480 -481 482 483 484 485
v -486 487 488 489 490 491 492 493 494 495 496 497 498 499 500 501 502 503 504
v 505 506 507 508 509 510 511 512 513 514 515 516 517 518 519 520 521 522 523
v 524 525 526 527 528 529 530 531 532 533 534 535 536 537 538 539 540 541 542
v 543 544 545 546 547 548 549 550 551 552 553 554 555 556 557 558 559 560 561
v 562 563 564 565 566 567 568 569 570 571 572 573 574 -575 576 -577 578 -579
v -580 -581 582 583 584 585 586 587 588 589 590 591 592 593 594 595 596 597
v 598 599 600 601 602 603 604 605 606 607 608 609 610 611 612 613 614 615 616
v 617 618 619 620 621 622 623 624 625 626 627 628 629 630 631 632 633 634 635
v 636 637 638 639 640 641 642 643 644 645 646 647 648 649 650 651 652 653 654
v 655 656 657 658 659 660 661 662 663 664 665 666 667 668 669 670 671 672 673
v 674 675 676 677 678 679 680 681 682 683 684 685 686 687 688 689 690 691 692
v 693 694 695 696 697 698 699 700 701 702 703 704 705 706 707 708 709 710 711
v 712 713 714 715 716 717 718 719 720 721 722 723 724 725 726 727 728 729 730
v 731 732 733 734 735 736 737 738 739 740 741 742 743 744 745 746 747 748 749
v 750 751 752 753 754 755 756 757 758 759 760 761 762 763 764 765 766 767 768
v 769 770 771 772 773 774 775 776 777 778 779 780 781 782 783 784 785 786 787
v 788 789 790 791 792 793 794 795 796 797 798 799 800 801 802 803 804 805 806
... skipped 1119376 lines ...
v -9911632 -9911633 9911634 -9911635 9911636 9911637 -9911638 -9911639
v -9911640 -9911641 9911642 -9911643 -9911644 9911645 9911646 -9911647
v -9911648 9911649 -9911650 -9911651 -9911652 9911653 -9911654 9911655 9911656
v -9911657 -9911658 -9911659 -9911660 9911661 -9911662 -9911663 9911664
v 9911665 -9911666 -9911667 9911668 -9911669 -9911670 -9911671 9911672
v -9911673 9911674 9911675 -9911676 -9911677 -9911678 -9911679 9911680
v -9911681 -9911682 9911683 9911684 -9911685 -9911686 9911687 -9911688
v -9911689 -9911690 9911691 -9911692 9911693 9911694 -9911695 -9911696
v -9911697 -9911698 9911699 -9911700 -9911701 9911702 9911703 -9911704
v -9911705 9911706 -9911707 -9911708 -9911709 9911710 -9911711 9911712 9911713
v -9911714 -9911715 -9911716 -9911717 9911718 -9911719 -9911720 9911721
v 9911722 -9911723 -9911724 9911725 -9911726 -9911727 -9911728 9911729
v -9911730 9911731 9911732 -9911733 -9911734 -9911735 -9911736 9911737
v -9911738 -9911739 9911740 9911741 -9911742 -9911743 9911744 -9911745
v -9911746 -9911747 9911748 -9911749 9911750 9911751 -9911752 -9911753
v -9911754 -9911755 9911756 -9911757 -9911758 9911759 9911760 -9911761
v -9911762 9911763 -9911764 -9911765 -9911766 9911767 -9911768 9911769 9911770
v -9911771 -9911772 -9911773 -9911774 9911775 -9911776 -9911777 9911778
v 9911779 -9911780 -9911781 9911782 -9911783 -9911784 -9911785 9911786
v -9911787 9911788 9911789 -9911790 -9911791 -9911792 -9911793 9911794
v -9911795 -9911796 9911797 9911798 -9911799 -9911800 9911801 -9911802
v -9911803 -9911804 9911805 -9911806 9911807 9911808 -9911809 -9911810
v -9911811 -9911812 9911813 -9911814 -9911815 9911816 9911817 -9911818
v -9911819 9911820 -9911821 -9911822 -9911823 9911824 -9911825 9911826 9911827
v -9911828 -9911829 -9911830 -9911831 9911832 -9911833 -9911834 9911835
v 9911836 -9911837 -9911838 9911839 -9911840 -9911841 -9911842 9911843
v -9911844 9911845 9911846 -9911847 -9911848 -9911849 -9911850 9911851
v -9911852 -9911853 9911854 9911855 -9911856 -9911857 9911858 -9911859
v -9911860 -9911861 9911862 -9911863 9911864 9911865 -9911866 -9911867
v -9911868 -9911869 9911870 -9911871 -9911872 9911873 9911874 -9911875
v -9911876 9911877 -9911878 -9911879 -9911880 9911881 -9911882 9911883 9911884
v -9911885 -9911886 -9911887 -9911888 9911889 -9911890 -9911891 9911892
v 9911893 -9911894 -9911895 9911896 -9911897 -9911898 -9911899 9911900
v -9911901 9911902 9911903 -9911904 -9911905 -9911906 -9911907 9911908
v -9911909 -9911910 9911911 9911912 -9911913 -9911914 9911915 -9911916
v -9911917 -9911918 9911919 -9911920 9911921 9911922 -9911923 -9911924
v -9911925 -9911926 9911927 -9911928 -9911929 9911930 9911931 -9911932
v -9911933 9911934 -9911935 -9911936 -9911937 9911938 -9911939 9911940 9911941
v -9911942 -9911943 -9911944 -9911945 9911946 -9911947 -9911948 9911949
v 9911950 -9911951 -9911952 9911953 -9911954 -9911955 -9911956 9911957
v -9911958 9911959 9911960 -9911961 -9911962 -9911963 -9911964 9911965
v -9911966 -9911967 9911968 9911969 -9911970 -9911971 9911972 -9911973
v -9911974 -9911975 9911976 -9911977 9911978 9911979 -9911980 -9911981
v -9911982 -9911983 9911984 -9911985 -9911986 9911987 9911988 -9911989
v -9911990 9911991 -9911992 -9911993 -9911994 9911995 -9911996 9911997 9911998
v -9911999 -9912000 -9912001 -9912002 9912003 -9912004 -9912005 9912006
v 9912007 -9912008 -9912009 9912010 -9912011 -9912012 -9912013 9912014
v -9912015 9912016 9912017 -9912018 -9912019 -9912020 -9912021 9912022
v -9912023 -9912024 9912025 9912026 -9912027 -9912028 9912029 -9912030
v -9912031 -9912032 9912033 -9912034 -9912035 9912036 -9912037 -9912038
v -9912039 -9912040 9912041 -9912042 9912043 -9912044 -9912045 9912046
v -9912047 -9912048 -9912049 9912050 9912051 -9912052 0
c 
c --- [ run-time profiling ] -------------------------------------------------
c 
c process time taken by individual solving procedures
c (percentage relative to process time for solving)
c 
c         9.53  100.00% search
c         5.02   52.68% unstable
c         4.82   50.55% parse
c         3.53   37.03% stable
c         0.98   10.28% lucky
c         0.00    0.00% simplify
c   =================================
c         9.53   64.36% solve
c 
c last line shows process time for solving
c (percentage relative to total process time)
c 
c --- [ statistics ] ---------------------------------------------------------
c 
c chronological:               531        39.36 %  of conflicts
c conflicts:                  1349       141.52    per second
c decisions:                319608     33529.61    per second
c fixed:                   3100339        31.28 %  of all variables
c learned:                    1323        98.07 %  per conflict
c learned_lits:              27117       100.00 %  learned literals
c minimized:                     0         0.00 %  learned literals
c shrunken:                  12279        45.28 %  learned literals
c minishrunken:               1101         4.06 %  learned literals
c otfs:                          5         0.37 %  of conflict
c propagations:           56649563         5.94 M  per second
c rephased:                      1      1349.00    interval
c restarts:                    119        11.34    interval
c stabilizing:                   1        25.72 %  of conflicts
c subsumed:                    245         0.00 %  of all clauses
c strengthened:                  5         0.00 %  of all clauses
c 
c seconds are measured in process time for solving
c 
c --- [ resources ] ----------------------------------------------------------
c 
c total process time since initialization:        14.81    seconds
c total real time since initialization:           15.93    seconds
c maximum resident set size of process:         4244.71    MB
c 
c --- [ shutting down ] ------------------------------------------------------
c 
c exit 10
